set ZONES := A B C D E F G H I J K;

set ISOS := PJM IESO NE HQ;

set LINES :=
AB
BC
CE
DE
EF
EG
FG
GH
HI
IJ
IK
JK
;

set GENERATORS :=
WIND
SOLAR
HYDRO
GAS
NUCLEAR
;

set STORAGE :=
FOUR
;

param nPeriods := 8755;

param operating_cost: A B C D E F G H I J K :=
WIND 0 0 0 0 0 0 0 0 0 0 0
SOLAR 0 0 0 0 0 0 0 0 0 0 0
HYDRO 0 0 0 0 0 0 0 0 0 0 0
GAS 50 50 50 50 50 50 50 50 50 50 50
NUCLEAR 999 50 50 999 999 999 999 999 999 999 999
;

param iso_connections: A B C D E F G H I J K :=
PJM 0 0 975 0 0 0 2000 0 0 0 0
IESO 1300 0 0 450 0 0 0 0 0 0 0
NE 0 0 0 0 0 800 800 0 0 0 0
HQ 0 0 0 0 0 0 0 0 0 1250 0
;

param price_iso :=
PJM 35
IESO 35
NE 35
HQ 35
;


#param capacity_cost_gen: A B C D E F G H I J K :=
#WIND	120000	120000	120000	120000	120000	120000	120000	240000	240000	240000	240000	
#SOLAR	84000	84000	84000	84000	84000	84000	84000	98000	98000	98000	98000	
#HYDRO 9999999 9999999 9999999 9999999 9999999 9999999 9999999 9999999 9999999 9999999 9999999
#GAS 9999999 9999999 9999999 9999999 9999999 9999999 9999999 9999999 9999999 9999999 9999999
#NUCLEAR 9999999 9999999 9999999 9999999 9999999 9999999 9999999 9999999 9999999 9999999 9999999
#;

param capacity_cost_gen: A B C D E F G H I J K :=
WIND	4000	4000	4000	4000	4000	4000	4000	8000	8000	8000	8000	
SOLAR	2800	2800	2800	2800	2800	2800	2800	3267	3267	3267	3267	
HYDRO 9999999 9999999 9999999 9999999 9999999 9999999 9999999 9999999 9999999 9999999 9999999
GAS 9999999 9999999 9999999 9999999 9999999 9999999 9999999 9999999 9999999 9999999 9999999
NUCLEAR 9999999 9999999 9999999 9999999 9999999 9999999 9999999 9999999 9999999 9999999 9999999
;


param: capacity_cost_stor operating_cost_stor storage_duration discharge_eff charge_eff :=
FOUR 1400 0 4 .93 .93
;

param existing_installed_capacity_gen: A B C D E F G H I J K :=
WIND 286.4 0 751.14 678.4 737.3 0 0 0 0 0 0
SOLAR 0 0 40 0 0 0 160 0 0 0 54.4
HYDRO 2460 64 109 915 376 269.6 75.8 0 0 0 0
NUCLEAR 0 581.8 2772.8 0 0 0 0 0 0 0 0
GAS 511.5 130.9 3193.1 387.4 214.6 3554.8 4899.1 0 0 9423.4 5341.1
;

param existing_installed_capacity_stor: A B C D E F G H I J K :=
FOUR 0 0 0 0 0 0 0 0 0 0 0
;

param max_installed_capacity_stor: A B C D E F G H I J K :=
FOUR 2479 10 2538 2562 892 4727 150 0 0 4263 1924
;

param max_installed_capacity_gen: A B C D E F G H I J K :=
WIND 2692 390 1923 1935 1821 1864 606 303 0	8250 6609
SOLAR 15737 2050 10104 127 6938	17801 5623 202 299 1676	4324
;

# NEW: Line connectivity data (from zone, to zone)
param: LINES: line_from line_to :=
  AB     A        B
  BC     B        C
  CE     C        E
  DE     D        E
  EF     E        F
  EG     E        G
  FG     F        G
  GH     G        H
  HI     H        I
  IJ     I        J
  IK     I        K
  JK     J        K
;


# Keep the existing line capacity data
param line_capacity :=
AB 2200
BC 1500
CE 5650
DE 2650
EF 3925
EG 2300
FG 5400
GH 7375
HI 8450
IJ 4400
IK 1293
JK 320
;	